NAME          DCAP_3_4_2_500_SS497
ROWS
 N  OBJ
 L  CON1
 L  CON2
 L  CON3
 L  CON4
 L  CON5
 L  CON6
 L  CON7
 L  CON8
 L  CON9
 L  CON10
 L  CON11
 L  CON12
 E  CON13
 E  CON14
 E  CON15
 E  CON16
 E  CON17
 E  CON18
 E  CON19
 E  CON20
COLUMNS
    x[1,1]    OBJ       6.180167      CON1      1.000000    
    x[1,1]    CON7      -1.000000     CON8      -1.000000   
    x[1,2]    OBJ       5.039546      CON2      1.000000    
    x[1,2]    CON8      -1.000000   
    x[2,1]    OBJ       6.732585      CON3      1.000000    
    x[2,1]    CON9      -1.000000     CON10     -1.000000   
    x[2,2]    OBJ       7.443064      CON4      1.000000    
    x[2,2]    CON10     -1.000000   
    x[3,1]    OBJ       6.563535      CON5      1.000000    
    x[3,1]    CON11     -1.000000     CON12     -1.000000   
    x[3,2]    OBJ       6.054841      CON6      1.000000    
    x[3,2]    CON12     -1.000000   
    MARKER    'MARKER'                'INTORG'
    u[1,1]    OBJ       48.076654     CON1      -1.000000   
    u[1,2]    OBJ       49.466655     CON2      -1.000000   
    u[2,1]    OBJ       49.996186     CON3      -1.000000   
    u[2,2]    OBJ       32.230043     CON4      -1.000000   
    u[3,1]    OBJ       20.066487     CON5      -1.000000   
    u[3,2]    OBJ       27.484319     CON6      -1.000000   
    y[1,1,1]  OBJ       9.180155      CON7      0.596418    
    y[1,1,1]  CON13     1.000000    
    y[1,1,2]  OBJ       9.077369      CON8      0.831438    
    y[1,1,2]  CON14     1.000000    
    y[1,2,1]  OBJ       7.925433      CON7      0.627280    
    y[1,2,1]  CON15     1.000000    
    y[1,2,2]  OBJ       9.215079      CON8      1.477843    
    y[1,2,2]  CON16     1.000000    
    y[1,3,1]  OBJ       7.011978      CON7      1.164009    
    y[1,3,1]  CON17     1.000000    
    y[1,3,2]  OBJ       9.084238      CON8      0.668762    
    y[1,3,2]  CON18     1.000000    
    y[1,4,1]  OBJ       7.632690      CON7      1.348915    
    y[1,4,1]  CON19     1.000000    
    y[1,4,2]  OBJ       5.149975      CON8      0.697132    
    y[1,4,2]  CON20     1.000000    
    y[2,1,1]  OBJ       7.633362      CON9      0.596418    
    y[2,1,1]  CON13     1.000000    
    y[2,1,2]  OBJ       7.214570      CON10     0.831438    
    y[2,1,2]  CON14     1.000000    
    y[2,2,1]  OBJ       5.270830      CON9      0.627280    
    y[2,2,1]  CON15     1.000000    
    y[2,2,2]  OBJ       5.263157      CON10     1.477843    
    y[2,2,2]  CON16     1.000000    
    y[2,3,1]  OBJ       9.359872      CON9      1.164009    
    y[2,3,1]  CON17     1.000000    
    y[2,3,2]  OBJ       6.349218      CON10     0.668762    
    y[2,3,2]  CON18     1.000000    
    y[2,4,1]  OBJ       7.359250      CON9      1.348915    
    y[2,4,1]  CON19     1.000000    
    y[2,4,2]  OBJ       6.320309      CON10     0.697132    
    y[2,4,2]  CON20     1.000000    
    y[3,1,1]  OBJ       7.328186      CON11     0.596418    
    y[3,1,1]  CON13     1.000000    
    y[3,1,2]  OBJ       7.584345      CON12     0.831438    
    y[3,1,2]  CON14     1.000000    
    y[3,2,1]  OBJ       5.556655      CON11     0.627280    
    y[3,2,1]  CON15     1.000000    
    y[3,2,2]  OBJ       7.876428      CON12     1.477843    
    y[3,2,2]  CON16     1.000000    
    y[3,3,1]  OBJ       8.618050      CON11     1.164009    
    y[3,3,1]  CON17     1.000000    
    y[3,3,2]  OBJ       5.806838      CON12     0.668762    
    y[3,3,2]  CON18     1.000000    
    y[3,4,1]  OBJ       5.379643      CON11     1.348915    
    y[3,4,1]  CON19     1.000000    
    y[3,4,2]  OBJ       8.387770      CON12     0.697132    
    y[3,4,2]  CON20     1.000000    
    z[1,1]    OBJ       876.467021    CON13     1.000000    
    z[1,2]    OBJ       915.884369    CON14     1.000000    
    z[2,1]    OBJ       949.980518    CON15     1.000000    
    z[2,2]    OBJ       768.832148    CON16     1.000000    
    z[3,1]    OBJ       976.456343    CON17     1.000000    
    z[3,2]    OBJ       599.432753    CON18     1.000000    
    z[4,1]    OBJ       529.680869    CON19     1.000000    
    z[4,2]    OBJ       612.438184    CON20     1.000000    
    MARKER    'MARKER'                 'INTEND'
RHS
    RHS       CON1      -0.000000     CON2      -0.000000   
    RHS       CON3      -0.000000     CON4      -0.000000   
    RHS       CON5      -0.000000     CON6      -0.000000   
    RHS       CON7      -0.000000     CON8      -0.000000   
    RHS       CON9      -0.000000     CON10     -0.000000   
    RHS       CON11     -0.000000     CON12     -0.000000   
    RHS       CON13     1.000000      CON14     1.000000    
    RHS       CON15     1.000000      CON16     1.000000    
    RHS       CON17     1.000000      CON18     1.000000    
    RHS       CON19     1.000000      CON20     1.000000    
BOUNDS
 BV BOUND     u[1,1]  
 BV BOUND     u[1,2]  
 BV BOUND     u[2,1]  
 BV BOUND     u[2,2]  
 BV BOUND     u[3,1]  
 BV BOUND     u[3,2]  
 BV BOUND     y[1,1,1]
 BV BOUND     y[1,1,2]
 BV BOUND     y[1,2,1]
 BV BOUND     y[1,2,2]
 BV BOUND     y[1,3,1]
 BV BOUND     y[1,3,2]
 BV BOUND     y[1,4,1]
 BV BOUND     y[1,4,2]
 BV BOUND     y[2,1,1]
 BV BOUND     y[2,1,2]
 BV BOUND     y[2,2,1]
 BV BOUND     y[2,2,2]
 BV BOUND     y[2,3,1]
 BV BOUND     y[2,3,2]
 BV BOUND     y[2,4,1]
 BV BOUND     y[2,4,2]
 BV BOUND     y[3,1,1]
 BV BOUND     y[3,1,2]
 BV BOUND     y[3,2,1]
 BV BOUND     y[3,2,2]
 BV BOUND     y[3,3,1]
 BV BOUND     y[3,3,2]
 BV BOUND     y[3,4,1]
 BV BOUND     y[3,4,2]
 BV BOUND     z[1,1]  
 BV BOUND     z[1,2]  
 BV BOUND     z[2,1]  
 BV BOUND     z[2,2]  
 BV BOUND     z[3,1]  
 BV BOUND     z[3,2]  
 BV BOUND     z[4,1]  
 BV BOUND     z[4,2]  
ENDATA
